p cnf 1346 2103
4 5 -21 101 0
-21 25 -101 102 0
25 27 -102 103 0
27 48 -103 104 0
48 -55 -104 105 0
-55 -64 -105 106 0
-64 -81 -86 -106 0
9 18 61 107 0
61 95 -100 -107 0
-2 8 -14 108 0
-14 34 -108 109 0
34 81 -109 110 0
81 -83 -110 111 0
-83 -88 -111 112 0
-88 92 98 -112 0
35 52 -70 113 0
-70 -83 -113 114 0
-83 87 99 -114 0
-20 -40 -43 -59 0
-7 -37 -46 -66 0
25 36 -37 115 0
-37 -47 -115 116 0
-47 -50 -116 117 0
-50 53 -117 118 0
53 -61 -63 -118 0
-20 35 57 119 0
57 -80 -84 -119 0
18 -28 -36 120 0
-36 -41 -120 121 0
-41 -73 86 -121 0
-11 -64 -66 90 0
-3 16 122 123 0
-3 16 122 -123 0
-3 16 -122 123 0
-3 16 -122 -123 0
-19 23 -75 -78 0
15 20 79 124 0
15 20 79 -124 0
-27 -67 92 125 0
-27 -67 92 -125 0
-2 7 73 126 0
-2 7 73 -126 0
39 73 -87 127 0
39 73 -87 -127 0
19 20 -32 128 0
-32 -62 -128 129 0
-62 -74 91 -129 0
-2 16 19 130 0
19 21 -130 131 0
21 53 -131 132 0
53 91 -97 -132 0
5 25 28 133 0
28 29 -133 134 0
29 -61 -134 135 0
-61 63 -135 136 0
63 -83 87 -136 0
15 -85 137 138 0
15 -85 137 -138 0
15 -85 -137 138 0
15 -85 -137 -138 0
2 13 -59 139 0
-59 79 -93 -139 0
-18 21 -70 140 0
-18 21 -70 -140 0
34 -86 141 142 0
34 -86 141 -142 0
34 -86 -141 142 0
34 -86 -141 -142 0
10 12 14 143 0
14 49 -143 144 0
49 -58 -144 145 0
-58 61 -145 146 0
61 81 82 -146 0
8 13 -55 91 0
37 -46 -58 147 0
-58 -86 -99 -147 0
-10 69 80 148 0
-10 69 80 -148 0
-19 28 38 149 0
38 -68 74 -149 0
2 -8 64 150 0
64 83 84 -150 0
5 -7 -40 151 0
-40 -60 -151 152 0
-60 71 -152 153 0
71 -76 -153 154 0
-76 -95 97 -154 0
-4 6 42 155 0
-4 6 42 -155 0
-12 -34 -44 156 0
-44 87 89 -156 0
-7 -30 -45 157 0
-7 -30 -45 -157 0
-2 24 63 158 0
-2 24 63 -158 0
-21 -23 -46 159 0
-46 48 -49 -159 0
27 65 -66 160 0
-66 -80 90 -160 0
-8 39 66 161 0
66 75 -161 162 0
75 -87 -91 -162 0
4 60 -63 163 0
4 60 -63 -163 0
50 61 72 75 0
29 -43 47 164 0
47 -58 -63 -164 0
12 -19 -28 165 0
-28 -45 -50 -165 0
12 68 69 166 0
69 -85 -166 167 0
-85 89 91 -167 0
-3 14 15 168 0
15 -30 -168 169 0
-30 -33 -169 170 0
-33 60 97 -170 0
17 -32 -41 -78 0
-13 25 -26 171 0
-26 92 95 -171 0
-17 19 20 172 0
20 -22 -172 173 0
-22 24 -173 174 0
24 25 -174 175 0
25 -27 -175 176 0
-27 -32 92 -176 0
-12 78 -84 -96 0
-70 91 177 178 0
-70 91 177 -178 0
-70 91 -177 178 0
-70 91 -177 -178 0
-21 -30 42 179 0
42 53 -71 -179 0
-5 -55 63 180 0
63 64 -180 181 0
64 83 98 -181 0
16 -34 69 182 0
16 -34 69 -182 0
8 -48 53 183 0
53 70 -98 -183 0
-2 -18 -26 184 0
-26 54 91 -184 0
2 -6 -45 185 0
-45 51 -185 186 0
51 73 87 -186 0
6 -17 28 187 0
28 -67 -74 -187 0
-40 -45 92 188 0
-40 -45 92 -188 0
9 -23 -26 189 0
-26 36 -189 190 0
36 62 94 -190 0
2 11 75 191 0
75 82 -191 192 0
82 91 -192 193 0
91 93 98 -193 0
-29 -38 49 194 0
49 50 -194 195 0
50 57 -195 196 0
57 -67 -94 -196 0
-21 40 -45 197 0
-45 56 -197 198 0
56 -73 -198 199 0
-73 78 -98 -199 0
-15 56 60 -89 0
-29 -42 61 200 0
61 -73 98 -200 0
-44 63 96 201 0
-44 63 96 -201 0
41 51 65 202 0
65 -71 -202 203 0
-71 74 -203 204 0
74 92 -94 -204 0
-30 50 79 205 0
-30 50 79 -205 0
12 13 -18 206 0
-18 -32 -206 207 0
-32 40 -207 208 0
40 -42 -92 -208 0
54 96 209 210 0
54 96 209 -210 0
54 96 -209 210 0
54 96 -209 -210 0
4 -36 47 211 0
4 -36 47 -211 0
19 -34 -39 212 0
-39 -43 -212 213 0
-43 56 -213 214 0
56 61 -214 215 0
61 -74 -215 216 0
-74 78 -100 -216 0
21 -28 -96 217 0
21 -28 -96 -217 0
4 39 -49 218 0
-49 -60 -97 -218 0
38 40 58 219 0
58 94 -97 -219 0
24 -55 220 221 0
24 -55 220 -221 0
24 -55 -220 221 0
24 -55 -220 -221 0
13 63 66 222 0
66 -93 99 -222 0
-49 52 -62 223 0
-49 52 -62 -223 0
36 37 68 224 0
36 37 68 -224 0
35 41 56 225 0
56 71 -225 226 0
71 78 -83 -226 0
-18 -35 -95 227 0
-18 -35 -95 -227 0
-8 27 32 228 0
32 41 -228 229 0
41 -53 -229 230 0
-53 -94 97 -230 0
-4 15 17 231 0
17 -38 -231 232 0
-38 -40 -232 233 0
-40 49 -233 234 0
49 -55 -59 -234 0
-7 58 63 -78 0
16 43 -78 235 0
16 43 -78 -235 0
-1 32 88 236 0
-1 32 88 -236 0
-55 -65 -88 95 0
21 24 -31 237 0
-31 37 -237 238 0
37 89 -93 -238 0
40 54 55 -90 0
3 -6 -30 239 0
-30 -34 -239 240 0
-34 62 -240 241 0
62 63 -241 242 0
63 -70 -242 243 0
-70 -75 -81 -243 0
17 19 36 244 0
36 -49 -244 245 0
-49 56 -245 246 0
56 -57 -94 -246 0
2 -12 28 247 0
28 -39 -247 248 0
-39 -71 -248 249 0
-71 -77 -90 -249 0
-11 56 63 -64 0
6 -25 -45 250 0
-45 50 -250 251 0
50 -57 -251 252 0
-57 -72 -252 253 0
-72 -76 -81 -253 0
-6 8 48 254 0
48 -74 -254 255 0
-74 -88 -255 256 0
-88 -92 -96 -256 0
59 66 -77 257 0
59 66 -77 -257 0
1 36 -49 258 0
-49 -76 -258 259 0
-76 -79 92 -259 0
7 11 -17 260 0
-17 -41 -260 261 0
-41 88 -261 262 0
88 -93 100 -262 0
-2 -19 45 263 0
45 -55 -263 264 0
-55 75 -264 265 0
75 77 -265 266 0
77 90 91 -266 0
70 83 86 88 0
-18 -59 -82 -88 0
-7 -17 -28 267 0
-28 71 -267 268 0
71 72 -268 269 0
72 -78 99 -269 0
30 68 94 270 0
30 68 94 -270 0
-3 30 -51 271 0
-51 59 -271 272 0
59 81 87 -272 0
-23 -42 55 -96 0
87 -100 273 274 0
87 -100 273 -274 0
87 -100 -273 274 0
87 -100 -273 -274 0
-10 -25 -28 275 0
-28 -49 -275 276 0
-49 -61 -276 277 0
-61 85 -277 278 0
85 86 -97 -278 0
27 59 -64 279 0
-64 71 -279 280 0
71 98 -99 -280 0
7 -36 39 281 0
39 -48 -281 282 0
-48 -51 -282 283 0
-51 -87 -283 284 0
-87 -92 -284 285 0
-92 98 99 -285 0
1 30 -45 49 0
-5 14 -15 286 0
-15 -18 -96 -286 0
-20 30 83 287 0
-20 30 83 -287 0
-6 -45 288 289 0
-6 -45 288 -289 0
-6 -45 -288 289 0
-6 -45 -288 -289 0
17 29 53 290 0
53 -54 -290 291 0
-54 71 -291 292 0
71 72 -292 293 0
72 83 -293 294 0
83 91 -99 -294 0
17 -23 -67 295 0
-67 71 -295 296 0
71 -79 -296 297 0
-79 82 -83 -297 0
2 -24 -28 298 0
-28 -40 -298 299 0
-40 -83 99 -299 0
1 64 -77 94 0
29 -60 -69 300 0
29 -60 -69 -300 0
11 -73 -75 81 0
37 38 -47 301 0
-47 -70 -76 -301 0
7 31 48 302 0
48 58 -302 303 0
58 59 -303 304 0
59 -62 -304 305 0
-62 -72 -305 306 0
-72 87 -98 -306 0
1 -40 43 307 0
43 -49 52 -307 0
7 -45 61 308 0
7 -45 61 -308 0
51 -58 67 309 0
67 -74 98 -309 0
-1 -18 36 310 0
-1 -18 36 -310 0
27 -31 -53 311 0
-53 56 -311 312 0
56 62 -312 313 0
62 -69 -313 314 0
-69 -72 93 -314 0
-5 8 -20 315 0
-20 33 -315 316 0
33 -38 -316 317 0
-38 -54 -317 318 0
-54 57 -318 319 0
57 -60 -90 -319 0
4 -26 -35 320 0
-35 46 -320 321 0
46 -47 -65 -321 0
-12 14 53 92 0
2 57 84 322 0
2 57 84 -322 0
-21 -47 323 324 0
-21 -47 323 -324 0
-21 -47 -323 324 0
-21 -47 -323 -324 0
-40 55 -92 325 0
-40 55 -92 -325 0
14 -20 -62 326 0
14 -20 -62 -326 0
7 -11 -30 327 0
-30 -39 -327 328 0
-39 59 -328 329 0
59 -73 -85 -329 0
-7 15 -53 330 0
-53 -67 -330 331 0
-67 73 80 -331 0
-1 14 39 332 0
-1 14 39 -332 0
14 24 -52 333 0
-52 68 -333 334 0
68 83 -334 335 0
83 -89 -99 -335 0
31 -32 -54 78 0
-44 -55 -60 336 0
-44 -55 -60 -336 0
-38 -93 337 338 0
-38 -93 337 -338 0
-38 -93 -337 338 0
-38 -93 -337 -338 0
34 -47 -62 339 0
34 -47 -62 -339 0
8 10 -18 340 0
-18 -36 -340 341 0
-36 39 -341 342 0
39 -49 -342 343 0
-49 64 82 -343 0
9 -46 -58 344 0
-58 -64 -344 345 0
-64 87 92 -345 0
49 89 94 346 0
49 89 94 -346 0
7 -27 41 347 0
41 -43 -63 -347 0
49 -50 62 348 0
49 -50 62 -348 0
15 31 33 349 0
33 -55 -349 350 0
-55 58 -350 351 0
58 60 -81 -351 0
38 -43 71 352 0
71 82 -352 353 0
82 -84 -88 -353 0
-16 -55 59 354 0
59 -76 89 -354 0
-1 -13 33 355 0
33 -43 -81 -355 0
-32 -41 47 356 0
-32 -41 47 -356 0
4 -17 41 357 0
41 43 96 -357 0
-1 51 64 358 0
64 -84 -358 359 0
-84 -93 -100 -359 0
-26 -55 -66 360 0
-66 -83 86 -360 0
-2 5 -44 -76 0
-13 -24 35 361 0
35 -77 97 -361 0
-23 28 -41 362 0
-41 59 -362 363 0
59 -69 -363 364 0
-69 73 -364 365 0
73 76 -365 366 0
76 -78 -87 -366 0
6 62 67 74 0
6 7 68 367 0
6 7 68 -367 0
-1 4 -17 368 0
-17 -34 -368 369 0
-34 -71 -369 370 0
-71 81 99 -370 0
50 58 61 68 0
13 32 -38 371 0
-38 -55 -371 372 0
-55 -57 -96 -372 0
41 -58 -63 373 0
-63 66 -373 374 0
66 80 -91 -374 0
6 -31 49 375 0
49 52 -375 376 0
52 58 -74 -376 0
2 -36 -65 -91 0
7 -21 56 377 0
56 -58 91 -377 0
4 44 65 66 0
5 46 61 378 0
61 73 95 -378 0
60 -63 379 380 0
60 -63 379 -380 0
60 -63 -379 380 0
60 -63 -379 -380 0
28 -45 -89 -93 0
1 -24 -28 381 0
-28 -40 97 -381 0
-19 21 -22 382 0
-22 32 -382 383 0
32 -36 -383 384 0
-36 -39 -384 385 0
-39 43 -79 -385 0
-3 42 66 386 0
66 69 -386 387 0
69 72 -75 -387 0
-5 81 -92 388 0
-5 81 -92 -388 0
-9 14 18 389 0
18 -30 -389 390 0
-30 32 -390 391 0
32 36 -391 392 0
36 82 100 -392 0
-15 37 41 393 0
41 53 -70 -393 0
-2 -54 -73 90 0
-34 83 93 394 0
-34 83 93 -394 0
18 79 83 -86 0
9 15 18 395 0
18 20 -395 396 0
20 -34 -50 -396 0
-12 -17 -30 397 0
-30 83 -98 -397 0
-2 -15 -57 398 0
-57 -62 -398 399 0
-62 -69 -88 -399 0
-9 -32 94 99 0
21 83 -85 -88 0
40 64 -74 400 0
40 64 -74 -400 0
14 15 -30 401 0
-30 68 76 -401 0
12 28 402 403 0
12 28 402 -403 0
12 28 -402 403 0
12 28 -402 -403 0
2 82 -91 404 0
2 82 -91 -404 0
-26 73 -85 405 0
-85 89 -405 406 0
89 91 -94 -406 0
-48 83 89 407 0
-48 83 89 -407 0
-15 -19 -23 408 0
-23 50 -74 -408 0
-52 -62 73 74 0
4 -9 -26 409 0
-26 33 -409 410 0
33 38 -410 411 0
38 -43 -411 412 0
-43 53 -412 413 0
53 -74 87 -413 0
1 7 18 414 0
18 27 70 -414 0
8 -11 17 415 0
17 -23 -415 416 0
-23 43 -416 417 0
43 90 -417 418 0
90 -92 -97 -418 0
44 61 -79 419 0
-79 -92 96 -419 0
-29 -49 -52 -68 0
-16 -46 -55 -75 0
34 45 -46 420 0
-46 -56 -420 421 0
-56 -59 -421 422 0
-59 62 -422 423 0
62 -70 -72 -423 0
-29 44 66 424 0
66 -89 -93 -424 0
27 -37 -45 425 0
-45 -50 -425 426 0
-50 -82 95 -426 0
-20 -73 -75 99 0
-12 25 427 428 0
-12 25 427 -428 0
-12 25 -427 428 0
-12 25 -427 -428 0
-28 32 -84 -87 0
1 24 29 88 0
-36 -76 429 430 0
-36 -76 429 -430 0
-36 -76 -429 430 0
-36 -76 -429 -430 0
-11 16 82 431 0
-11 16 82 -431 0
6 48 82 -96 0
-6 28 29 432 0
29 -41 -432 433 0
-41 -71 -433 434 0
-71 -83 100 -434 0
-11 25 28 435 0
28 30 -435 436 0
30 62 100 -436 0
14 34 37 437 0
37 38 -437 438 0
38 -70 -438 439 0
-70 72 -439 440 0
72 -92 96 -440 0
-2 24 -94 441 0
-2 24 -94 -441 0
11 22 -68 88 0
-27 30 -79 442 0
-27 30 -79 -442 0
43 -95 443 444 0
43 -95 443 -444 0
43 -95 -443 444 0
43 -95 -443 -444 0
19 21 23 445 0
23 58 -445 446 0
58 -67 -446 447 0
-67 70 -447 448 0
70 90 91 -448 0
17 22 -64 100 0
-8 -18 449 450 0
-8 -18 449 -450 0
-8 -18 -449 450 0
-8 -18 -449 -450 0
46 -55 -67 -95 0
-19 78 89 451 0
-19 78 89 -451 0
-28 37 47 452 0
47 -77 83 -452 0
-4 6 11 453 0
11 -17 -453 454 0
-17 73 -454 455 0
73 92 93 -455 0
14 -16 -49 456 0
-49 -69 -456 457 0
-69 80 -85 -457 0
-13 15 51 458 0
-13 15 51 -458 0
-21 -43 -53 459 0
-53 96 98 -459 0
-16 -39 -54 460 0
-16 -39 -54 -460 0
-11 33 72 461 0
-11 33 72 -461 0
-30 -32 -55 462 0
-55 57 -58 -462 0
36 74 -75 463 0
-75 -89 99 -463 0
-17 48 75 464 0
75 84 -464 465 0
84 -96 -100 -465 0
13 69 -72 466 0
13 69 -72 -466 0
59 70 81 84 0
38 -52 56 467 0
56 -67 -72 -467 0
21 -28 -37 468 0
-37 -54 -59 -468 0
6 21 77 469 0
77 78 -469 470 0
78 -94 -470 471 0
-94 98 100 -471 0
-12 23 24 472 0
24 -39 -472 473 0
-39 -42 69 -473 0
1 4 26 474 0
26 -41 -474 475 0
-41 -50 -87 -475 0
1 -22 34 -35 0
-5 -26 28 476 0
28 29 -476 477 0
29 -31 -477 478 0
-31 33 -478 479 0
33 34 -479 480 0
34 -36 -41 -480 0
-21 87 -93 481 0
-21 87 -93 -481 0
-79 100 482 483 0
-79 100 482 -483 0
-79 100 -482 483 0
-79 100 -482 -483 0
7 -30 -39 484 0
-39 51 -484 485 0
51 62 -80 -485 0
-14 -64 72 486 0
72 73 92 -486 0
-7 25 -43 78 0
17 -57 62 79 0
-11 -27 -35 487 0
-35 63 100 -487 0
11 -15 -54 488 0
-54 60 -488 489 0
60 82 96 -489 0
1 15 -26 490 0
-26 37 -490 491 0
37 -76 -83 -491 0
3 -49 -54 492 0
3 -49 -54 -492 0
2 7 18 493 0
18 -32 -493 494 0
-32 -35 -494 495 0
-35 45 71 -495 0
-3 11 20 496 0
20 84 -496 497 0
84 91 100 -497 0
-7 -38 -47 498 0
-47 58 -498 499 0
58 59 -499 500 0
59 66 -76 -500 0
-30 49 -54 501 0
-54 65 -501 502 0
65 -82 87 -502 0
7 -24 65 503 0
65 69 -98 -503 0
5 -38 -51 504 0
-51 70 -82 -504 0
1 -3 -53 72 0
50 60 74 505 0
74 -80 83 -505 0
-1 -39 59 88 0
21 22 -27 506 0
-27 -41 -506 507 0
-41 49 -51 -507 0
5 33 508 509 0
5 33 508 -509 0
5 33 -508 509 0
5 33 -508 -509 0
-9 13 -45 56 0
-5 28 -43 510 0
-43 -48 -510 511 0
-48 -52 -511 512 0
-52 65 -512 513 0
65 70 -513 514 0
70 -83 87 -514 0
-6 30 -37 515 0
-6 30 -37 -515 0
3 -6 13 516 0
13 48 -516 517 0
48 -58 -69 -517 0
47 49 67 518 0
47 49 67 -518 0
-2 8 33 -64 0
22 72 75 519 0
22 72 75 -519 0
-58 61 -71 520 0
-58 61 -71 -520 0
45 46 77 521 0
45 46 77 -521 0
-4 44 50 522 0
50 65 -522 523 0
65 80 -523 524 0
80 87 -92 -524 0
-3 6 -27 -44 0
-17 36 41 525 0
41 50 -62 -525 0
-13 24 26 526 0
26 -47 -526 527 0
-47 -49 -527 528 0
-49 58 -528 529 0
58 -64 -68 -529 0
-16 67 72 -87 0
25 52 -87 530 0
25 52 -87 -530 0
4 -10 41 97 0
-2 -64 -74 -97 0
30 33 -40 531 0
-40 46 98 -531 0
49 63 64 -99 0
-3 12 -15 532 0
-15 -39 -532 533 0
-39 -43 -533 534 0
-43 71 -534 535 0
71 72 -535 536 0
72 -79 -536 537 0
-79 -84 -90 -537 0
26 28 45 538 0
45 -58 -538 539 0
-58 65 -66 -539 0
11 -21 37 540 0
37 -48 -540 541 0
-48 -80 -541 542 0
-80 -86 -99 -542 0
-20 65 72 -73 0
-1 -5 15 543 0
15 -34 -543 544 0
-34 -54 -544 545 0
-54 59 -545 546 0
59 -66 -546 547 0
-66 -81 -547 548 0
-81 -85 -90 -548 0
-15 17 57 549 0
57 -83 -97 -549 0
1 68 75 -86 0
-2 9 10 550 0
10 45 -550 551 0
45 -58 -551 552 0
-58 -85 -88 -552 0
16 20 -26 553 0
-26 -50 97 -553 0
-11 -28 54 554 0
54 -64 -554 555 0
-64 84 -555 556 0
84 86 -556 557 0
86 99 100 -557 0
79 92 95 97 0
8 -27 -68 558 0
-68 -91 -97 -558 0
3 -16 -26 559 0
-26 -37 -559 560 0
-37 80 -560 561 0
80 81 -87 -561 0
39 77 562 563 0
39 77 562 -563 0
39 77 -562 563 0
39 77 -562 -563 0
-5 -12 39 564 0
39 -60 -564 565 0
-60 68 -565 566 0
68 90 96 -566 0
-9 -32 -51 64 0
-6 96 567 568 0
-6 96 567 -568 0
-6 96 -567 568 0
-6 96 -567 -568 0
7 -8 -19 569 0
-19 -34 -569 570 0
-34 -37 -570 571 0
-37 -58 -571 572 0
-58 -70 -572 573 0
-70 94 95 -573 0
-1 7 8 574 0
8 36 -574 575 0
36 68 -575 576 0
68 -73 80 -576 0
16 -45 48 577 0
48 -57 -577 578 0
-57 -60 -96 -578 0
-5 10 39 579 0
39 -54 58 -579 0
-14 23 -24 -27 0
-29 39 92 580 0
-29 39 92 -580 0
-8 -15 -54 581 0
-8 -15 -54 -581 0
26 38 62 582 0
62 -63 -582 583 0
-63 80 -583 584 0
80 81 -584 585 0
81 92 100 -585 0
8 26 -32 586 0
-32 -76 -586 587 0
-76 80 -587 588 0
80 -88 -588 589 0
-88 91 -92 -589 0
11 -33 -37 590 0
-37 -49 -92 -590 0
3 27 591 592 0
3 27 591 -592 0
3 27 -591 592 0
3 27 -591 -592 0
10 73 -86 593 0
10 73 -86 -593 0
38 -69 -78 594 0
38 -69 -78 -594 0
20 -82 -84 90 0
-7 46 47 595 0
47 -56 -595 596 0
-56 -79 -85 -596 0
16 40 57 597 0
57 67 -597 598 0
67 68 -598 599 0
68 -71 -599 600 0
-71 -81 96 -600 0
10 -49 52 601 0
52 -58 61 -601 0
7 16 -54 70 0
60 -67 76 -83 0
2 -10 -27 45 0
36 -40 -62 602 0
-62 65 -602 603 0
65 71 -603 604 0
71 -78 -81 -604 0
-14 17 -29 605 0
-29 42 -605 606 0
42 -47 -606 607 0
-47 -63 -607 608 0
-63 66 -608 609 0
66 -69 -99 -609 0
1 13 -35 610 0
-35 -44 -610 611 0
-44 55 -611 612 0
55 -56 -74 -612 0
-21 23 62 613 0
-21 23 62 -613 0
11 66 93 614 0
11 66 93 -614 0
-1 -30 -56 615 0
-1 -30 -56 -615 0
-49 64 616 617 0
-49 64 616 -617 0
-49 64 -616 617 0
-49 64 -616 -617 0
23 -29 -71 618 0
23 -29 -71 -618 0
16 -20 -39 619 0
-39 -48 -619 620 0
-48 68 -620 621 0
68 -82 -94 -621 0
-16 24 -62 622 0
-62 -76 -622 623 0
-76 82 89 -623 0
-10 23 48 624 0
-10 23 48 -624 0
-8 15 625 626 0
-8 15 625 -626 0
-8 15 -625 626 0
-8 15 -625 -626 0
23 33 -61 627 0
-61 77 -627 628 0
77 92 -98 -628 0
40 -41 -63 87 0
-2 -53 -64 -69 0
43 -56 -71 629 0
43 -56 -71 -629 0
1 17 19 630 0
19 -27 -630 631 0
-27 -45 -631 632 0
-45 48 -632 633 0
48 -58 -633 634 0
-58 73 91 -634 0
3 18 -55 635 0
-55 -67 -635 636 0
-67 -73 96 -636 0
58 98 637 638 0
58 98 637 -638 0
58 98 -637 638 0
58 98 -637 -638 0
16 -36 50 639 0
50 -52 -72 -639 0
58 -59 71 640 0
58 -59 71 -640 0
24 40 42 641 0
42 -64 -641 642 0
-64 67 -642 643 0
67 69 -90 -643 0
47 -52 80 644 0
80 91 -644 645 0
91 -93 -97 -645 0
-25 -64 68 646 0
68 -85 98 -646 0
-10 -22 42 647 0
42 -52 -90 -647 0
5 -41 -50 56 0
-2 -9 13 648 0
13 -26 -648 649 0
-26 50 52 -649 0
-10 60 73 -93 0
-35 -64 -75 650 0
-75 -92 95 -650 0
6 -11 14 651 0
14 -53 -85 -651 0
-22 -33 44 -86 0
-32 37 -50 652 0
-50 68 -652 653 0
68 -78 -653 654 0
-78 82 -654 655 0
82 85 -655 656 0
85 -87 -96 -656 0
15 71 76 83 0
8 15 16 77 0
-10 13 -26 657 0
-26 -43 -657 658 0
-43 -80 90 -658 0
-5 59 67 659 0
67 70 77 -659 0
22 41 -47 660 0
-47 -64 -66 -660 0
50 -67 -72 661 0
-72 75 -661 662 0
75 89 -100 -662 0
15 -40 58 663 0
58 61 -663 664 0
61 67 -83 -664 0
11 -45 -74 -100 0
16 -30 65 665 0
65 -67 100 -665 0
4 13 53 666 0
53 74 75 -666 0
14 55 70 82 0
-3 69 -72 667 0
-3 69 -72 -667 0
6 37 -54 -98 0
10 -33 -37 -49 0
-28 30 -31 668 0
-31 41 -668 669 0
41 -45 -669 670 0
-45 -48 -670 671 0
-48 52 -88 -671 0
-1 -12 51 672 0
51 75 -672 673 0
75 78 -673 674 0
78 81 -84 -674 0
9 -14 90 675 0
9 -14 90 -675 0
-18 23 27 676 0
27 -39 -676 677 0
-39 41 -677 678 0
41 45 91 -678 0
-24 46 50 679 0
50 62 -79 -679 0
2 -11 -63 680 0
-63 -82 99 -680 0
-43 92 681 682 0
-43 92 681 -682 0
-43 92 -681 682 0
-43 92 -681 -682 0
27 88 92 -95 0
-7 18 24 683 0
24 27 -683 684 0
27 29 -684 685 0
29 -43 -59 -685 0
-21 -26 -39 92 0
3 8 -11 686 0
-11 -24 -686 687 0
-24 -66 -687 688 0
-66 -71 -688 689 0
-71 -78 -97 -689 0
-18 -41 690 691 0
-18 -41 690 -691 0
-18 -41 -690 691 0
-18 -41 -690 -691 0
30 92 -94 -97 0
49 73 -83 692 0
49 73 -83 -692 0
23 24 -39 693 0
-39 77 85 -693 0
21 37 694 695 0
21 37 694 -695 0
21 37 -694 695 0
21 37 -694 -695 0
-3 11 91 -100 0
-35 82 -94 696 0
-94 98 100 -696 0
-57 92 98 697 0
-57 92 98 -697 0
-24 -28 -32 698 0
-32 59 -83 -698 0
-61 -71 82 83 0
13 -18 -35 699 0
-35 42 -699 700 0
42 47 -700 701 0
47 -52 -701 702 0
-52 62 -702 703 0
62 -83 96 -703 0
-1 -6 10 704 0
10 16 -704 705 0
16 27 -705 706 0
27 36 79 -706 0
-1 5 17 707 0
17 -20 -707 708 0
-20 26 -708 709 0
26 -32 -709 710 0
-32 52 99 -710 0
53 70 -88 711 0
53 70 -88 -711 0
-38 -58 -61 -77 0
-25 -55 -64 -84 0
-2 43 54 712 0
54 -55 -712 713 0
-55 -65 -713 714 0
-65 -68 -714 715 0
-68 71 -715 716 0
71 -79 -81 -716 0
4 -38 53 717 0
53 75 -98 -717 0
8 36 -46 718 0
-46 -54 -718 719 0
-54 -59 -91 -719 0
-29 -82 -84 720 0
-29 -82 -84 -720 0
-21 34 721 722 0
-21 34 721 -722 0
-21 34 -721 722 0
-21 34 -721 -722 0
-37 41 -93 -96 0
10 33 38 97 0
-45 -85 723 724 0
-45 -85 723 -724 0
-45 -85 -723 724 0
-45 -85 -723 -724 0
-5 -20 25 91 0
15 57 91 725 0
15 57 91 -725 0
9 -15 37 726 0
37 38 -726 727 0
38 -50 -727 728 0
-50 -80 -92 -728 0
-1 5 -20 729 0
-20 34 -729 730 0
34 37 -730 731 0
37 39 71 -731 0
-3 23 43 732 0
43 46 -732 733 0
46 47 -733 734 0
47 -79 81 -734 0
-11 33 735 736 0
-11 33 735 -736 0
-11 33 -735 736 0
-11 33 -735 -736 0
20 31 -77 97 0
-4 -36 39 -88 0
9 28 30 737 0
30 32 -737 738 0
32 67 -738 739 0
67 -76 -739 740 0
-76 79 -740 741 0
79 99 100 -741 0
26 31 -73 742 0
26 31 -73 -742 0
-4 -17 -27 743 0
-4 -17 -27 -743 0
55 -64 -76 744 0
55 -64 -76 -744 0
-28 87 98 745 0
-28 87 98 -745 0
1 2 -37 746 0
-37 46 -746 747 0
46 56 -747 748 0
56 -86 92 -748 0
-13 15 20 749 0
20 -26 82 -749 0
23 -25 -58 750 0
-58 -78 -750 751 0
-78 89 -94 -751 0
5 7 -22 752 0
-22 24 60 -752 0
-30 -52 -62 753 0
-30 -52 -62 -753 0
-25 -48 -63 754 0
-25 -48 -63 -754 0
-7 -20 42 81 0
8 -39 -41 755 0
-41 -64 -755 756 0
-64 66 -67 -756 0
-5 -9 45 757 0
45 83 -757 758 0
83 -84 -98 -758 0
-26 57 84 93 0
22 78 -81 759 0
22 78 -81 -759 0
68 79 90 93 0
47 -61 65 760 0
65 -76 -81 -760 0
-3 7 9 761 0
9 30 -761 762 0
30 -37 -762 763 0
-37 -46 -763 764 0
-46 -63 -68 -764 0
15 30 86 87 0
-21 32 33 765 0
33 -48 -765 766 0
-48 -51 78 -766 0
10 13 35 767 0
35 -50 -767 768 0
-50 -59 -96 -768 0
10 -31 43 -44 0
-2 -14 -35 769 0
-35 37 -769 770 0
37 38 -770 771 0
38 -40 -771 772 0
-40 42 -772 773 0
42 43 -773 774 0
43 -45 -50 -774 0
9 -30 96 775 0
9 -30 96 -775 0
1 16 -39 776 0
-39 -48 -776 777 0
-48 60 -777 778 0
60 71 -89 -778 0
-23 -73 81 82 0
-16 34 -52 87 0
9 26 -66 779 0
-66 71 88 -779 0
5 -20 -36 780 0
-36 -44 72 -780 0
20 -24 -63 781 0
-63 69 91 -781 0
10 24 -35 782 0
-35 46 -782 783 0
46 -85 -92 -783 0
12 -58 -63 784 0
12 -58 -63 -784 0
9 11 16 785 0
16 27 -785 786 0
27 -41 -786 787 0
-41 -44 -787 788 0
-44 54 80 -788 0
-12 20 29 789 0
29 93 100 -789 0
-16 -47 -56 790 0
-56 67 -790 791 0
67 68 -791 792 0
68 75 -85 -792 0
-7 -39 58 793 0
58 -63 -793 794 0
-63 74 -794 795 0
74 -91 96 -795 0
16 -33 74 78 0
14 -47 -60 796 0
-60 79 -91 -796 0
10 -12 -62 81 0
59 69 83 797 0
83 -89 92 -797 0
-10 -48 68 97 0
30 31 -36 798 0
-36 -50 -798 799 0
-50 58 -60 -799 0
14 42 800 801 0
14 42 800 -801 0
14 42 -800 801 0
14 42 -800 -801 0
-18 22 -54 65 0
-14 37 -52 802 0
-52 -57 -802 803 0
-57 -61 -803 804 0
-61 74 -804 805 0
74 79 -805 806 0
79 -92 96 -806 0
-15 39 -46 807 0
-15 39 -46 -807 0
12 -15 22 808 0
22 57 -808 809 0
57 -67 -78 -809 0
56 58 76 810 0
56 58 76 -810 0
-11 17 42 -73 0
31 81 84 811 0
31 81 84 -811 0
-67 70 -80 812 0
-67 70 -80 -812 0
-1 54 55 86 0
-13 53 59 813 0
59 74 -813 814 0
74 89 96 -814 0
-12 15 -36 -53 0
-26 45 50 815 0
50 59 -71 -815 0
-22 33 35 816 0
35 -56 -816 817 0
-56 -58 -817 818 0
-58 67 -818 819 0
67 -73 -77 -819 0
-25 76 81 -96 0
6 34 61 -96 0
-6 13 -19 50 0
7 -11 -73 -83 0
-8 39 42 820 0
42 -49 55 -820 0
58 72 73 821 0
58 72 73 -821 0
-12 21 -24 822 0
-24 -48 -822 823 0
-48 -52 -823 824 0
-52 80 -824 825 0
80 81 -825 826 0
81 -88 -826 827 0
-88 -93 -99 -827 0
-8 35 37 828 0
37 54 -828 829 0
54 -67 -829 830 0
-67 74 -75 -830 0
20 -30 46 831 0
46 -57 -831 832 0
-57 -89 -95 -832 0
-29 74 81 -82 0
-6 -10 -14 833 0
-14 24 -833 834 0
24 -43 -834 835 0
-43 -63 -835 836 0
-63 68 -836 837 0
68 -75 -837 838 0
-75 -90 -838 839 0
-90 -94 -99 -839 0
-24 26 66 -92 0
10 77 84 -95 0
6 -11 18 840 0
18 19 -840 841 0
19 54 -841 842 0
54 -67 -842 843 0
-67 -94 -97 -843 0
8 9 25 844 0
25 29 -844 845 0
29 -35 -59 -845 0
1 4 6 846 0
6 -20 -846 847 0
-20 -37 -847 848 0
-37 63 -848 849 0
63 -73 -849 850 0
-73 93 95 -850 0
-6 88 851 852 0
-6 88 851 -852 0
-6 88 -851 852 0
-6 88 -851 -852 0
17 -36 -77 -100 0
12 -25 -35 853 0
-35 -46 -853 854 0
-46 89 -854 855 0
89 90 -96 -855 0
5 48 86 856 0
5 48 86 -856 0
-14 -21 48 857 0
48 -69 -857 858 0
-69 77 99 -858 0
5 -18 -41 859 0
-41 -60 73 -859 0
3 4 -15 860 0
3 4 -15 -860 0
16 -17 -28 861 0
-28 -43 -861 862 0
-43 -46 -862 863 0
-46 -67 -79 -863 0
-5 -10 16 864 0
16 17 -864 865 0
17 45 -865 866 0
45 77 -866 867 0
77 -82 89 -867 0
25 -54 57 868 0
57 -66 -69 -868 0
-14 19 48 869 0
48 -63 67 -869 0
1 -23 32 870 0
32 -33 -36 -870 0
-38 48 871 872 0
-38 48 871 -872 0
-38 48 -871 872 0
-38 48 -871 -872 0
1 9 -17 873 0
-17 -24 -63 -873 0
-1 35 47 874 0
47 71 -874 875 0
71 -72 -875 876 0
-72 89 90 -876 0
-1 17 35 877 0
35 -41 -877 878 0
-41 -85 -878 879 0
-85 89 -879 880 0
89 -97 100 -880 0
20 -42 -46 -58 0
12 36 881 882 0
12 36 881 -882 0
12 36 -881 882 0
12 36 -881 -882 0
19 82 -95 883 0
19 82 -95 -883 0
47 -78 -87 884 0
47 -78 -87 -884 0
29 -91 -93 99 0
5 -16 55 885 0
55 56 -885 886 0
56 -65 -886 887 0
-65 -88 -94 -887 0
25 49 66 888 0
66 76 -888 889 0
76 77 -889 890 0
77 -80 -90 -890 0
19 -58 61 891 0
61 -67 70 -891 0
16 25 -63 79 0
69 -76 85 -92 0
11 -19 -36 54 0
-8 45 -49 892 0
-49 -71 -892 893 0
-71 74 -893 894 0
74 80 -894 895 0
80 -87 -90 -895 0
-23 26 -38 896 0
-38 51 -896 897 0
51 -56 -897 898 0
-56 -72 -898 899 0
-72 75 -78 -899 0
10 22 -44 900 0
-44 -53 -900 901 0
-53 64 -901 902 0
64 -65 -83 -902 0
2 -30 32 71 0
20 75 903 904 0
20 75 903 -904 0
20 75 -903 904 0
20 75 -903 -904 0
-10 -39 -65 905 0
-10 -39 -65 -905 0
-58 73 906 907 0
-58 73 906 -907 0
-58 73 -906 907 0
-58 73 -906 -907 0
-3 32 -38 -80 0
25 -29 -48 908 0
-48 -57 -908 909 0
-57 77 -91 -909 0
-25 33 -71 910 0
-71 -85 -910 911 0
-85 91 98 -911 0
-19 32 57 912 0
-19 32 57 -912 0
1 -7 -17 24 0
32 42 -70 86 0
49 -50 -72 96 0
-11 -62 -73 -78 0
52 -65 -80 913 0
52 -65 -80 -913 0
5 10 26 914 0
26 28 -914 915 0
28 -36 -915 916 0
-36 -54 -916 917 0
-54 57 -917 918 0
57 -67 -918 919 0
-67 82 100 -919 0
7 12 27 920 0
27 -64 -920 921 0
-64 -76 -82 -921 0
25 -45 59 922 0
59 -61 -81 -922 0
67 -68 80 923 0
67 -68 80 -923 0
-2 -6 33 924 0
33 49 -924 925 0
49 51 -925 926 0
51 -73 -926 927 0
-73 76 -927 928 0
76 78 -99 -928 0
7 56 -61 929 0
-61 89 100 -929 0
-34 -73 77 -94 0
-19 -31 51 930 0
51 -61 -99 -930 0
14 -50 -59 65 0
-2 -11 -18 931 0
-18 22 -931 932 0
22 -35 -932 933 0
-35 59 61 -933 0
-1 4 -19 934 0
-19 69 82 -934 0
-44 -73 -84 935 0
-44 -73 -84 -935 0
15 -20 23 936 0
23 -62 -94 -936 0
-5 -31 -42 937 0
-42 53 -95 -937 0
-41 46 -59 938 0
-59 77 -938 939 0
77 -87 -939 940 0
-87 91 -940 941 0
91 94 -96 -941 0
24 80 85 92 0
17 24 25 86 0
-19 22 -35 942 0
-35 -52 -942 943 0
-52 -89 99 -943 0
-14 68 76 944 0
76 79 86 -944 0
-9 31 50 945 0
50 -56 -945 946 0
-56 -73 -75 -946 0
59 -76 -81 947 0
-81 84 98 -947 0
-9 24 -49 948 0
-49 67 -948 949 0
67 70 -949 950 0
70 76 -92 -950 0
9 20 -54 -83 0
25 -39 74 -76 0
13 22 62 951 0
62 83 84 -951 0
23 64 79 91 0
-12 78 -81 952 0
-12 78 -81 -952 0
-7 -11 953 954 0
-7 -11 953 -954 0
-7 -11 -953 954 0
-7 -11 -953 -954 0
15 46 -63 955 0
15 46 -63 -955 0
19 -42 -46 -58 0
-37 39 -40 956 0
-40 50 -956 957 0
50 -54 -957 958 0
-54 -57 -958 959 0
-57 61 -97 -959 0
-10 -21 60 960 0
60 84 -960 961 0
84 87 -961 962 0
87 90 -93 -962 0
18 -23 99 963 0
18 -23 99 -963 0
-27 32 36 964 0
36 -48 -964 965 0
-48 50 -965 966 0
50 54 100 -966 0
8 -33 55 967 0
55 59 -967 968 0
59 71 -88 -968 0
1 11 -20 969 0
-20 -72 -91 -969 0
1 -4 -52 970 0
1 -4 -52 -970 0
36 97 971 972 0
36 97 971 -972 0
36 97 -971 972 0
36 97 -971 -972 0
1 -16 27 973 0
27 33 -973 974 0
33 36 -974 975 0
36 38 -975 976 0
38 -52 -68 -976 0
-6 -30 -35 -48 0
12 17 -20 977 0
-20 -33 -977 978 0
-33 -75 -978 979 0
-75 -80 -87 -979 0
1 -3 -6 980 0
-6 -27 -50 -980 0
58 82 -92 981 0
58 82 -92 -981 0
32 33 -48 982 0
-48 86 94 -982 0
-9 30 46 983 0
-9 30 46 -983 0
-3 7 9 984 0
9 -12 -984 985 0
-12 20 100 -985 0
1 7 -44 91 0
-33 -37 -41 986 0
-41 68 -92 -986 0
5 -70 -80 987 0
-80 91 92 -987 0
22 -27 -44 988 0
-44 51 -988 989 0
51 56 -989 990 0
56 -61 -990 991 0
-61 71 -92 -991 0
8 -10 -15 992 0
-15 19 -992 993 0
19 25 -993 994 0
25 36 -994 995 0
36 45 88 -995 0
-10 14 26 996 0
26 -29 -996 997 0
-29 35 -997 998 0
35 -41 61 -998 0
62 79 -97 999 0
62 79 -97 -999 0
-47 -67 -70 -86 0
-34 -64 -73 -93 0
-7 -11 52 1000 0
52 63 -1000 1001 0
63 -64 -1001 1002 0
-64 -74 -1002 1003 0
-74 -77 -1003 1004 0
-77 80 -1004 1005 0
80 -88 -90 -1005 0
13 -47 62 84 0
17 45 -55 1006 0
-55 -63 -1006 1007 0
-63 -68 -100 -1007 0
-38 -91 -93 1008 0
-38 -91 -93 -1008 0
-2 -5 -30 43 0
6 -46 50 1009 0
6 -46 50 -1009 0
19 42 47 1010 0
19 42 47 -1010 0
-54 -94 1011 1012 0
-54 -94 1011 -1012 0
-54 -94 -1011 1012 0
-54 -94 -1011 -1012 0
-14 -29 34 100 0
24 66 100 1013 0
24 66 100 -1013 0
-1 18 1014 1015 0
-1 18 1014 -1015 0
-1 18 -1014 1015 0
-1 18 -1014 -1015 0
18 -24 46 1016 0
46 47 -1016 1017 0
47 -59 -89 -1017 0
-10 14 -29 1018 0
-29 43 -1018 1019 0
43 46 -1019 1020 0
46 48 80 -1020 0
-12 32 52 1021 0
52 55 -1021 1022 0
55 56 -1022 1023 0
56 -88 90 -1023 0
6 -20 42 1024 0
6 -20 42 -1024 0
29 40 -86 1025 0
29 40 -86 -1025 0
-13 -45 48 -97 0
8 9 61 1026 0
8 9 61 -1026 0
18 37 39 1027 0
39 41 -1027 1028 0
41 76 -1028 1029 0
76 -85 88 -1029 0
35 40 -82 1030 0
35 40 -82 -1030 0
-13 -26 -36 1031 0
-13 -26 -36 -1031 0
7 64 -73 -85 0
1 -37 96 1032 0
1 -37 96 -1032 0
10 11 -46 1033 0
-46 55 -1033 1034 0
55 65 -95 -1034 0
-3 -22 24 1035 0
24 29 -1035 1036 0
29 -35 91 -1036 0
32 -34 -67 1037 0
-67 -87 98 -1037 0
14 16 -31 1038 0
-31 33 69 -1038 0
-39 -61 -71 1039 0
-39 -61 -71 -1039 0
-34 -57 -72 1040 0
-34 -57 -72 -1040 0
-16 -29 51 90 0
-7 17 -48 1041 0
-48 -50 -1041 1042 0
-50 -73 -1042 1043 0
-73 75 -76 -1043 0
2 -14 -18 1044 0
-18 54 -1044 1045 0
54 92 -93 -1045 0
-35 66 93 1046 0
-35 66 93 -1046 0
2 31 87 -90 0
77 88 99 1047 0
77 88 99 -1047 0
56 -70 74 1048 0
74 -85 -90 -1048 0
-12 16 18 1049 0
18 39 -1049 1050 0
39 -46 -1050 1051 0
-46 -55 -1051 1052 0
-55 -72 -77 -1052 0
24 39 95 96 0
-5 -30 41 1053 0
41 42 -1053 1054 0
42 -57 -1054 1055 0
-57 -60 87 -1055 0
19 22 44 1056 0
44 -59 -68 -1056 0
19 -40 52 -53 0
5 -11 -23 1057 0
-23 -44 -1057 1058 0
-44 46 -1058 1059 0
46 47 -1059 1060 0
47 -49 -1060 1061 0
-49 51 -1061 1062 0
51 52 -1062 1063 0
52 -54 -59 -1063 0
18 -39 1064 1065 0
18 -39 1064 -1065 0
18 -39 -1064 1065 0
18 -39 -1064 -1065 0
10 25 -48 1066 0
-48 -57 -1066 1067 0
-57 69 -1067 1068 0
69 80 -98 -1068 0
-32 -82 90 91 0
-25 43 -61 96 0
18 35 -75 1069 0
-75 80 97 -1069 0
14 -29 -45 1070 0
-45 -53 81 -1070 0
29 -33 -72 1071 0
-72 78 100 -1071 0
19 33 -44 1072 0
-44 55 -94 -1072 0
21 -67 -72 1073 0
21 -67 -72 -1073 0
2 9 18 1074 0
18 20 -1074 1075 0
20 25 -1075 1076 0
25 36 -1076 1077 0
36 -50 -1077 1078 0
-50 -53 -1078 1079 0
-53 63 89 -1079 0
-21 29 38 1080 0
-21 29 38 -1080 0
5 -25 -56 1081 0
-56 -65 -1081 1082 0
-65 76 -1082 1083 0
76 77 -1083 1084 0
77 84 -94 -1084 0
-16 -48 67 1085 0
67 -72 -1085 1086 0
-72 83 -100 -1086 0
25 -42 83 87 0
23 -56 -69 1087 0
-69 88 -100 -1087 0
1 19 -21 1088 0
-21 -71 90 -1088 0
6 68 78 1089 0
78 92 -98 -1089 0
-19 -57 77 1090 0
-19 -57 77 -1090 0
39 40 -45 1091 0
-45 -59 -1091 1092 0
-59 67 -69 -1092 0
23 51 1093 1094 0
23 51 1093 -1094 0
23 51 -1093 1094 0
23 51 -1093 -1094 0
-1 5 -27 1095 0
-27 31 -1095 1096 0
31 -63 74 -1096 0
-23 46 -61 1097 0
-61 -66 -1097 1098 0
-66 -70 -1098 1099 0
-70 83 88 -1099 0
-24 48 -55 1100 0
-24 48 -55 -1100 0
21 -24 31 1101 0
31 66 -1101 1102 0
66 -76 -87 -1102 0
65 67 85 1103 0
65 67 85 -1103 0
-20 26 51 -82 0
40 90 93 1104 0
40 90 93 -1104 0
-76 79 -89 1105 0
-76 79 -89 -1105 0
5 -10 63 1106 0
63 64 95 -1106 0
-22 62 68 1107 0
68 83 98 -1107 0
-21 24 -45 -62 0
-35 54 59 1108 0
59 68 -80 -1108 0
-5 -31 42 1109 0
42 44 -1109 1110 0
44 -65 -1110 1111 0
-65 -67 -1111 1112 0
-67 76 -1112 1113 0
76 -82 -86 -1113 0
-5 -34 85 90 0
15 43 70 1114 0
15 43 70 -1114 0
-15 22 -28 59 0
16 -20 -82 -92 0
-17 48 51 1115 0
51 -58 64 -1115 0
-2 -8 67 1116 0
67 81 82 -1116 0
-21 30 -33 1117 0
-33 -57 -1117 1118 0
-57 -61 -1118 1119 0
-61 89 -1119 1120 0
89 90 -97 -1120 0
-4 -17 44 1121 0
44 46 -1121 1122 0
46 63 -1122 1123 0
63 -76 -1123 1124 0
-76 83 -84 -1124 0
29 -39 55 1125 0
55 -66 -98 -1125 0
-3 -8 -38 1126 0
-38 83 -1126 1127 0
83 90 -91 -1127 0
-1 -15 -19 1128 0
-19 -23 -1128 1129 0
-23 33 -1129 1130 0
33 -52 -1130 1131 0
-52 -72 -1131 1132 0
-72 77 -1132 1133 0
77 -84 -99 -1133 0
-4 -33 35 75 0
-3 -6 19 1134 0
19 86 93 -1134 0
15 -20 27 1135 0
27 28 -1135 1136 0
28 63 -76 -1136 0
2 4 17 1137 0
17 18 -1137 1138 0
18 34 -1138 1139 0
34 38 -1139 1140 0
38 -44 -68 -1140 0
10 13 15 1141 0
15 -29 -1141 1142 0
-29 -46 -1142 1143 0
-46 72 -82 -1143 0
-9 -15 97 1144 0
-9 -15 97 -1144 0
-5 26 -45 -86 0
21 -34 -44 1145 0
-44 -55 -1145 1146 0
-55 98 99 -1146 0
8 14 57 95 0
-23 -30 57 1147 0
57 -78 86 -1147 0
14 -27 -50 1148 0
-50 -69 82 -1148 0
12 13 -24 1149 0
12 13 -24 -1149 0
25 -26 -37 1150 0
-37 -52 -1150 1151 0
-52 -55 -1151 1152 0
-55 -76 -88 -1152 0
-14 -19 25 1153 0
25 26 -1153 1154 0
26 54 -1154 1155 0
54 86 -1155 1156 0
86 -91 98 -1156 0
34 -63 66 1157 0
66 -75 -78 -1157 0
-23 28 57 1158 0
57 -72 76 -1158 0
10 -32 41 1159 0
41 -42 -45 -1159 0
-47 57 1160 1161 0
-47 57 1160 -1161 0
-47 57 -1160 1161 0
-47 57 -1160 -1161 0
10 18 -26 1162 0
-26 -33 -72 -1162 0
-6 9 -10 1163 0
-10 44 -1163 1164 0
44 56 -1164 1165 0
56 80 -1165 1166 0
80 -81 -1166 1167 0
-81 98 99 -1167 0
-10 26 44 1168 0
44 -50 -1168 1169 0
-50 -94 98 -1169 0
29 -51 -55 -67 0
-4 21 45 1170 0
-4 21 45 -1170 0
28 91 1171 1172 0
28 91 1171 -1172 0
28 91 -1171 1172 0
28 91 -1171 -1172 0
-2 8 56 1173 0
56 -87 -96 -1173 0
-3 38 -100 1174 0
-3 38 -100 -1174 0
14 -25 64 1175 0
64 65 -1175 1176 0
65 -74 -97 -1176 0
34 58 75 1177 0
75 85 -1177 1178 0
85 86 -1178 1179 0
86 -89 -99 -1179 0
28 -67 70 1180 0
70 -76 79 -1180 0
-1 25 34 1181 0
34 -72 88 -1181 0
78 -85 94 1182 0
78 -85 94 -1182 0
20 -28 -45 63 0
-17 54 -58 1183 0
-58 -80 -1183 1184 0
-80 83 -1184 1185 0
83 89 -1185 1186 0
89 -96 -99 -1186 0
-32 35 -47 1187 0
-47 60 -1187 1188 0
60 -65 -1188 1189 0
-65 -81 -1189 1190 0
-81 84 -87 -1190 0
19 31 -53 1191 0
-53 -62 -1191 1192 0
-62 73 -1192 1193 0
73 -74 -92 -1193 0
11 -39 41 80 0
29 84 1194 1195 0
29 84 1194 -1195 0
29 84 -1194 1195 0
29 84 -1194 -1195 0
-19 -48 -74 1196 0
-19 -48 -74 -1196 0
-67 82 1197 1198 0
-67 82 1197 -1198 0
-67 82 -1197 1198 0
-67 82 -1197 -1198 0
-12 41 -47 -89 0
7 34 -38 1199 0
-38 -57 -1199 1200 0
-57 -66 -1200 1201 0
-66 86 -100 -1201 0
-34 42 -80 1202 0
-80 -94 100 -1202 0
-28 41 66 1203 0
-28 41 66 -1203 0
10 -16 -26 33 0
5 41 51 1204 0
51 -79 95 -1204 0
58 -59 -81 1205 0
58 -59 -81 -1205 0
-20 -71 -82 -87 0
9 61 -74 -89 0
14 19 35 1206 0
35 37 -1206 1207 0
37 -45 -1207 1208 0
-45 -63 -1208 1209 0
-63 66 -1209 1210 0
66 -76 91 -1210 0
16 21 36 1211 0
36 -73 -1211 1212 0
-73 -85 -91 -1212 0
34 -54 68 1213 0
68 -70 -90 -1213 0
76 -77 89 1214 0
76 -77 89 -1214 0
9 -11 -15 1215 0
-15 42 -1215 1216 0
42 58 -1216 1217 0
58 60 -1217 1218 0
60 -82 -1218 1219 0
-82 85 87 -1219 0
-3 16 65 1220 0
65 -70 98 -1220 0
-8 -43 -82 86 0
-28 -40 60 -70 0
23 -59 -68 74 0
-11 -20 -27 1221 0
-27 31 -1221 1222 0
31 -44 -1222 1223 0
-44 68 70 -1223 0
-10 13 -28 1224 0
-28 78 91 -1224 0
-3 -53 -82 -93 0
-4 24 -29 1225 0
-29 32 -71 -1225 0
3 -5 -14 1226 0
-14 -40 -1226 1227 0
-40 -51 62 -1227 0
1 -50 55 1228 0
55 -68 -1228 1229 0
-68 86 -1229 1230 0
86 -96 100 -1230 0
33 89 94 1231 0
33 89 94 -1231 0
8 26 33 1232 0
33 34 95 -1232 0
-28 31 -44 1233 0
-44 -61 -98 -1233 0
-23 77 85 1234 0
85 88 95 -1234 0
7 -18 40 1235 0
40 59 -1235 1236 0
59 -65 -1236 1237 0
-65 -82 -84 -1237 0
68 -85 -90 93 0
-1 -60 1238 1239 0
-1 -60 1238 -1239 0
-1 -60 -1238 1239 0
-1 -60 -1238 -1239 0
-18 33 -58 1240 0
-58 76 -1240 1241 0
76 79 85 -1241 0
18 29 -63 -92 0
34 -48 83 -85 0
22 31 71 1242 0
71 92 93 -1242 0
32 73 88 100 0
-21 87 -90 1243 0
-21 87 -90 -1243 0
-16 -20 1244 1245 0
-16 -20 1244 -1245 0
-16 -20 -1244 1245 0
-16 -20 -1244 -1245 0
24 55 -72 1246 0
24 55 -72 -1246 0
-6 28 -51 1247 0
-51 -55 -67 -1247 0
-2 -46 48 1248 0
48 -49 -1248 1249 0
-49 59 -1249 1250 0
59 -63 -1250 1251 0
-63 -66 70 -1251 0
8 -19 -30 1252 0
-30 69 -1252 1253 0
69 93 -1253 1254 0
93 96 99 -1254 0
9 27 -32 1255 0
9 27 -32 -1255 0
-36 41 45 1256 0
45 -57 -1256 1257 0
-57 59 63 -1257 0
17 -42 64 1258 0
64 68 -1258 1259 0
68 80 -97 -1259 0
10 20 -29 1260 0
-29 -81 -100 -1260 0
6 10 -13 -61 0
10 -25 36 1261 0
36 42 -1261 1262 0
42 45 -1262 1263 0
45 47 -1263 1264 0
47 -61 -77 -1264 0
-15 -39 -44 -57 0
21 26 -29 1265 0
-29 -42 -1265 1266 0
-42 -84 -1266 1267 0
-84 -89 -96 -1267 0
10 -12 -15 1268 0
-15 -36 -59 -1268 0
-1 48 1269 1270 0
-1 48 1269 -1270 0
-1 48 -1269 1270 0
-1 48 -1269 -1270 0
3 67 91 1271 0
3 67 91 -1271 0
41 42 -57 95 0
9 -18 39 55 0
-12 16 18 1272 0
18 -21 29 -1272 0
10 16 -53 100 0
-1 -75 1273 1274 0
-1 -75 1273 -1274 0
-1 -75 -1273 1274 0
-1 -75 -1273 -1274 0
1 -42 -46 1275 0
-46 -50 77 -1275 0
-1 14 -79 1276 0
-79 -89 100 -1276 0
31 -36 -53 1277 0
-53 60 -1277 1278 0
60 65 -1278 1279 0
65 -70 80 -1279 0
17 -19 -24 1280 0
-24 28 -1280 1281 0
28 34 -1281 1282 0
34 45 -1282 1283 0
45 54 97 -1283 0
-6 -19 23 1284 0
23 35 -1284 1285 0
35 -38 -1285 1286 0
-38 44 -1286 1287 0
44 -50 70 -1287 0
71 88 1288 1289 0
71 88 1288 -1289 0
71 88 -1288 1289 0
71 88 -1288 -1289 0
-2 -56 -76 1290 0
-76 -79 -95 -1290 0
-43 -73 -82 1291 0
-43 -73 -82 -1291 0
-16 -20 61 1292 0
61 72 -1292 1293 0
72 -73 -1293 1294 0
-73 -83 -1294 1295 0
-83 -86 -1295 1296 0
-86 89 -1296 1297 0
89 -97 -99 -1297 0
-9 22 -56 1298 0
-56 71 93 -1298 0
-2 26 54 1299 0
54 -64 -1299 1300 0
-64 -72 -77 -1300 0
-47 -100 1301 1302 0
-47 -100 1301 -1302 0
-47 -100 -1301 1302 0
-47 -100 -1301 -1302 0
-11 -14 -39 52 0
15 -55 59 1303 0
15 -55 59 -1303 0
-3 28 51 56 0
9 -63 1304 1305 0
9 -63 1304 -1305 0
9 -63 -1304 1305 0
9 -63 -1304 -1305 0
9 -23 -38 43 0
33 75 1306 1307 0
33 75 1306 -1307 0
33 75 -1306 1307 0
33 75 -1306 -1307 0
-10 27 1308 1309 0
-10 27 1308 -1309 0
-10 27 -1308 1309 0
-10 27 -1308 -1309 0
27 -33 55 1310 0
55 56 -1310 1311 0
56 -68 -98 -1311 0
-19 23 -38 1312 0
-38 52 -1312 1313 0
52 55 -1313 1314 0
55 57 89 -1314 0
-21 41 61 1315 0
61 64 -1315 1316 0
64 65 -1316 1317 0
65 -97 99 -1317 0
15 -29 51 1318 0
15 -29 51 -1318 0
-6 38 49 -95 0
-22 -54 57 1319 0
-22 -54 57 -1319 0
17 18 70 1320 0
17 18 70 -1320 0
27 46 48 1321 0
48 50 -1321 1322 0
50 85 -1322 1323 0
85 -94 97 -1323 0
44 49 -91 1324 0
44 49 -91 -1324 0
-22 -35 -45 1325 0
-22 -35 -45 -1325 0
5 16 73 1326 0
73 -82 -94 -1326 0
-4 10 -46 1327 0
-4 10 -46 -1327 0
19 20 -55 1328 0
-55 64 74 -1328 0
7 -12 -31 1329 0
-31 33 -1329 1330 0
33 38 -1330 1331 0
38 -44 100 -1331 0
41 -43 -76 -96 0
23 25 -40 1332 0
-40 42 78 -1332 0
-48 -70 -80 1333 0
-48 -70 -80 -1333 0
-43 -66 -81 1334 0
-43 -66 -81 -1334 0
-25 -38 60 99 0
1 -2 -16 1335 0
-16 26 -1335 1336 0
26 -57 -1336 1337 0
-57 -59 -1337 1338 0
-59 -82 -1338 1339 0
-82 84 -85 -1339 0
2 11 -23 1340 0
-23 -27 63 -1340 0
-44 75 1341 1342 0
-44 75 1341 -1342 0
-44 75 -1341 1342 0
-44 75 -1341 -1342 0
8 11 40 1343 0
40 96 -99 -1343 0
86 97 1344 1345 0
86 97 1344 -1345 0
86 97 -1344 1345 0
86 97 -1344 -1345 0
65 -79 83 1346 0
83 -94 -99 -1346 0
